WARNING: for repeatability, setting FPU to use double precision
============================[ Problem Statistics ]=============================
|                                                                             |
|  Number of variables:           100                                         |
|  Number of clauses:             449                                         |
|  Parse time:                   0.00 s                                       |
|  Eliminated clauses:           0.00 Mb                                      |
|  Simplification time:          0.00 s                                       |
|                                                                             |
============================[ Search Statistics ]==============================
| Conflicts |          ORIGINAL         |          LEARNT          | Progress |
|           |    Vars  Clauses Literals |    Limit  Clauses Lit/Cl |          |
===============================================================================
|       100 |      98      442     1330 |      162      100      8 |  0.010 % |
===============================================================================
restarts              : 2
conflicts             : 187            (56839 /sec)
decisions             : 240            (0.00 % random) (72948 /sec)
propagations          : 4620           (1404255 /sec)
conflict literals     : 1463           (15.43 % deleted)
Memory used           : 13.00 MB
CPU time              : 0.00329 s

SATISFIABLE
